(declare-const a Real)
(declare-const b Real)
(declare-const c Real)
(assert (= (+ a b c) 3))
(assert (> a 0))
(assert (> b 0))
(assert (> c 0))
(assert (not (<= (+ 729 (* -108 (pow (+ a b c) 4) (pow (+ (* (pow b 2) (pow (+ a c) 2)) (* (pow c 2) (pow (+ a b) 2)) (* (/ 1 3) a (pow (+ b c) 2) (+ 2 (pow a 3)))) -1))) 0)))
(check-sat)
(get-model)
(exit)